26 26
22
3 3 7 17
3 4 13 0
3 5 0 21
3 6 7 20
3 7 23 0
3 8 13 18
3 9 4 0
3 10 10 0
3 11 20 15
3 12 4 9
3 14 13 4
3 15 16 0
3 16 10 10
3 17 7 0
3 19 23 7
4 3 16 23
4 4 19 0
4 5 3 21
4 7 0 0
4 8 16 15
4 11 19 4
4 14 0 7
